9
2147483647 74 62 25 50 71 24 90 25 
74 2147483647 14 50 76 98 42 68 12 
62 14 2147483647 45 91 64 10 15 34 
25 50 45 2147483647 34 39 71 4 16 
50 76 91 34 2147483647 40 30 84 2 
71 98 64 39 40 2147483647 65 11 28 
24 42 10 71 30 65 2147483647 28 6 
90 68 15 4 84 11 28 2147483647 33 
25 12 34 16 2 28 6 33 2147483647 
